NAME : P = NP
TYPE : TSP
DIMENSION : 49
EDGE_WEIGHT_TYPE : EUC_2D
NODE_COORD_SECTION
0 546 209
1 257 104
2 166 191
3 141 245
4 546 129
5 25 11
6 148 427
7 71 148
8 296 203
9 419 100
10 576 70
11 20 68
12 77 335
13 248 35
14 427 189
15 183 282
16 307 60
17 194 136
18 224 162
19 8 146
20 292 13
21 500 15
22 497 229
23 390 127
24 398 291
25 70 497
26 111 331
27 7 95
28 202 194
29 323 672
30 705 185
31 114 185
32 11 149
33 507 303
34 849 42
35 2 6
36 159 516
37 572 103
38 83 217
39 456 175
40 80 148
41 299 202
42 745 319
43 693 93
44 14 8
45 411 11
46 116 14
47 624 226
48 335 266